Normalized Data/p03_2_normalized_splitx10_0.vrp
NAME:p03_2_NORMALIZED_splitx10_
BEST_KNOWN: 0
COMMENT: 0
DIMENSION: 426
CAPACITY: 1000
EDGE_WEIGHT_FORMAT: FUNCTION
EDGE_WEIGHT_TYPE: EXACT_2D
NODE_COORD_SECTION
1 0.00000 0.00000
2 22 11
3 22 11
4 22 11
5 22 11
6 37 -1
7 37 -1
8 37 -1
9 37 -1
10 37 -1
11 -30 -4
12 -30 -4
13 -30 -4
14 -30 -4
15 -30 -4
16 -38 -2
17 -38 -2
18 -38 -2
19 42 48
20 42 48
21 -13 0
22 -13 0
23 -13 0
24 -13 0
25 -13 0
26 -13 0
27 23 -28
28 23 -28
29 38 -41
30 38 -41
31 38 -41
32 38 -41
33 -25 21
34 -25 21
35 -25 21
36 -25 21
37 -25 21
38 -37 -47
39 -37 -47
40 -37 -47
41 -37 -47
42 40 -22
43 40 -22
44 40 -22
45 40 -22
46 40 -22
47 40 -22
48 21 -35
49 21 -35
50 21 -35
51 21 -35
52 -48 -7
53 -48 -7
54 -48 -7
55 -48 -7
56 -48 -7
57 -5 -7
58 -5 -7
59 -5 -7
60 -5 -7
61 -5 -7
62 50 -24
63 50 -24
64 50 -24
65 50 -24
66 50 -24
67 50 -24
68 50 -24
69 5 -50
70 5 -50
71 5 -50
72 5 -50
73 20 -9
74 20 -9
75 20 -9
76 20 -9
77 20 -9
78 13 -33
79 13 -33
80 13 -33
81 -2 34
82 -2 34
83 -2 34
84 -15 -39
85 -15 -39
86 -15 -39
87 -48 -22
88 -48 -22
89 -42 -14
90 -42 -14
91 -42 -14
92 -42 -14
93 -42 -14
94 -42 -14
95 -42 -14
96 19 -2
97 19 -2
98 19 -2
99 19 -2
100 19 -2
101 19 -2
102 0 -5
103 0 -5
104 0 -5
105 0 -5
106 0 -5
107 0 -5
108 10 44
109 10 44
110 1 27
111 1 27
112 1 27
113 -12 42
114 -12 42
115 -12 42
116 20 -50
117 20 -50
118 20 -50
119 20 -50
120 20 -50
121 -48 10
122 -48 10
123 -48 10
124 -13 37
125 -13 37
126 -13 37
127 -41 -10
128 -41 -10
129 -41 -10
130 -41 -10
131 -50 -37
132 -50 -37
133 -50 -37
134 -50 -37
135 -50 -37
136 22 -16
137 22 -16
138 22 -16
139 22 -16
140 22 -16
141 22 -16
142 22 -16
143 13 -37
144 13 -37
145 13 -37
146 13 -37
147 13 -37
148 7 -37
149 7 -37
150 7 -37
151 7 -37
152 -38 -41
153 -38 -41
154 -38 -41
155 38 -21
156 38 -21
157 38 -21
158 38 -21
159 38 -21
160 38 -21
161 -47 -26
162 -47 -26
163 24 -3
164 24 -3
165 24 -3
166 14 9
167 14 9
168 14 9
169 31 16
170 31 16
171 31 16
172 31 16
173 1 -15
174 1 -15
175 1 -15
176 1 -15
177 1 -15
178 1 -15
179 32 -38
180 32 -38
181 32 -38
182 32 -38
183 32 -38
184 21 -22
185 21 -22
186 21 -22
187 43 19
188 43 19
189 43 19
190 43 19
191 -11 -2
192 -11 -2
193 -11 -2
194 -11 -2
195 -11 -2
196 -11 -2
197 28 35
198 28 35
199 28 35
200 -27 13
201 -27 13
202 -27 13
203 -27 13
204 -27 13
205 -27 13
206 -27 13
207 0 -44
208 0 -44
209 0 -44
210 0 -44
211 33 -8
212 33 -8
213 33 -8
214 33 -8
215 37 18
216 37 18
217 37 18
218 37 18
219 37 18
220 21 14
221 21 14
222 21 14
223 38 21
224 38 21
225 38 21
226 38 21
227 38 21
228 38 21
229 38 21
230 -44 44
231 -44 44
232 -44 44
233 -44 44
234 -44 44
235 -12 -4
236 -12 -4
237 -12 -4
238 -15 -48
239 -15 -48
240 -15 -48
241 -15 -48
242 -44 -7
243 -44 -7
244 -44 -7
245 -44 -7
246 -44 -7
247 46 -11
248 46 -11
249 46 -11
250 46 -11
251 -19 -47
252 -19 -47
253 -19 -47
254 -45 50
255 -45 50
256 -45 50
257 -45 50
258 -45 50
259 -45 50
260 -6 46
261 -6 46
262 -6 46
263 -6 46
264 -6 46
265 -28 39
266 -28 39
267 -28 39
268 -28 39
269 10 7
270 10 7
271 30 -8
272 30 -8
273 30 -8
274 30 -8
275 -49 -20
276 -49 -20
277 -28 24
278 -28 24
279 13 19
280 13 19
281 13 19
282 13 19
283 13 19
284 -41 21
285 -41 21
286 -41 21
287 -41 21
288 28 -50
289 28 -50
290 17 45
291 17 45
292 17 45
293 17 45
294 17 45
295 28 -8
296 28 -8
297 28 -8
298 5 -28
299 5 -28
300 5 -28
301 5 -28
302 5 -28
303 5 -28
304 -35 27
305 -35 27
306 -39 -28
307 -39 -28
308 -39 -28
309 -39 -28
310 -39 -28
311 -39 -28
312 -41 31
313 -41 31
314 -41 31
315 -41 31
316 -41 31
317 -6 21
318 -6 21
319 -6 21
320 -6 21
321 -6 21
322 -6 21
323 -6 21
324 44 35
325 44 35
326 -26 7
327 -26 7
328 -26 7
329 -26 7
330 -26 7
331 -26 7
332 -25 42
333 -25 42
334 -25 42
335 -25 42
336 -25 42
337 -6 2
338 -6 2
339 44 38
340 44 38
341 44 38
342 44 38
343 44 38
344 38 12
345 38 12
346 38 12
347 38 12
348 38 12
349 38 12
350 -35 9
351 -35 9
352 -35 9
353 -35 9
354 -41 47
355 -41 47
356 -41 47
357 -41 47
358 -28 2
359 -28 2
360 -28 2
361 -28 2
362 -28 2
363 -28 2
364 -28 2
365 -44 -47
366 -44 -47
367 -44 -47
368 9 -35
369 9 -35
370 9 -35
371 9 -35
372 19 11
373 19 11
374 19 11
375 19 11
376 19 11
377 19 11
378 41 35
379 41 35
380 41 35
381 41 35
382 41 35
383 41 35
384 -4 -13
385 -4 -13
386 -4 -13
387 -4 -13
388 -4 -13
389 -4 -13
390 -4 -13
391 49 -40
392 49 -40
393 19 2
394 19 2
395 50 7
396 50 7
397 50 7
398 50 7
399 50 7
400 -11 -26
401 -11 -26
402 13 19
403 13 19
404 19 -4
405 19 -4
406 19 -4
407 19 -4
408 19 -4
409 19 -4
410 -47 33
411 -47 33
412 -47 33
413 47 27
414 47 27
415 -24 46
416 -24 46
417 -24 46
418 -24 46
419 -24 46
420 -24 46
421 -24 46
422 14 29
423 14 29
424 14 29
425 14 29
426 14 29
DEMAND_SECTION
1 0
2 100
3 10
4 10
5 10
6 200
7 100
8 10
9 10
10 10
11 200
12 10
13 10
14 10
15 10
16 200
17 100
18 10
19 200
20 200
21 200
22 50
23 10
24 10
25 10
26 10
27 200
28 10
29 200
30 10
31 10
32 10
33 200
34 200
35 10
36 10
37 10
38 200
39 50
40 10
41 10
42 200
43 100
44 10
45 10
46 10
47 10
48 200
49 100
50 10
51 10
52 200
53 50
54 10
55 10
56 10
57 200
58 100
59 50
60 10
61 10
62 200
63 100
64 50
65 10
66 10
67 10
68 10
69 200
70 100
71 10
72 10
73 100
74 10
75 10
76 10
77 10
78 100
79 50
80 10
81 200
82 200
83 10
84 100
85 10
86 10
87 200
88 50
89 200
90 100
91 50
92 10
93 10
94 10
95 10
96 100
97 50
98 10
99 10
100 10
101 10
102 200
103 50
104 10
105 10
106 10
107 10
108 200
109 200
110 200
111 200
112 100
113 200
114 100
115 10
116 200
117 100
118 50
119 10
120 10
121 200
122 100
123 10
124 200
125 50
126 10
127 100
128 50
129 10
130 10
131 200
132 100
133 10
134 10
135 10
136 200
137 100
138 50
139 10
140 10
141 10
142 10
143 200
144 50
145 10
146 10
147 10
148 100
149 10
150 10
151 10
152 100
153 50
154 10
155 200
156 100
157 50
158 10
159 10
160 10
161 200
162 10
163 100
164 10
165 10
166 200
167 200
168 50
169 100
170 10
171 10
172 10
173 200
174 200
175 10
176 10
177 10
178 10
179 100
180 50
181 10
182 10
183 10
184 200
185 10
186 10
187 200
188 100
189 50
190 10
191 200
192 200
193 10
194 10
195 10
196 10
197 200
198 200
199 10
200 200
201 200
202 50
203 10
204 10
205 10
206 10
207 200
208 200
209 50
210 10
211 200
212 200
213 10
214 10
215 200
216 200
217 50
218 10
219 10
220 200
221 100
222 50
223 200
224 100
225 50
226 10
227 10
228 10
229 10
230 100
231 50
232 10
233 10
234 10
235 200
236 100
237 50
238 100
239 50
240 10
241 10
242 200
243 200
244 50
245 10
246 10
247 200
248 100
249 50
250 10
251 200
252 100
253 10
254 200
255 100
256 10
257 10
258 10
259 10
260 200
261 100
262 50
263 10
264 10
265 100
266 50
267 10
268 10
269 200
270 100
271 200
272 50
273 10
274 10
275 200
276 50
277 100
278 50
279 200
280 50
281 10
282 10
283 10
284 200
285 100
286 10
287 10
288 200
289 50
290 200
291 200
292 50
293 10
294 10
295 100
296 50
297 10
298 200
299 100
300 10
301 10
302 10
303 10
304 200
305 200
306 200
307 100
308 50
309 10
310 10
311 10
312 200
313 200
314 10
315 10
316 10
317 200
318 100
319 50
320 10
321 10
322 10
323 10
324 200
325 100
326 100
327 50
328 10
329 10
330 10
331 10
332 200
333 200
334 10
335 10
336 10
337 200
338 100
339 200
340 200
341 50
342 10
343 10
344 200
345 50
346 10
347 10
348 10
349 10
350 200
351 10
352 10
353 10
354 200
355 100
356 10
357 10
358 200
359 200
360 50
361 10
362 10
363 10
364 10
365 200
366 200
367 10
368 200
369 100
370 10
371 10
372 200
373 100
374 10
375 10
376 10
377 10
378 200
379 200
380 50
381 10
382 10
383 10
384 200
385 100
386 50
387 10
388 10
389 10
390 10
391 200
392 10
393 200
394 100
395 200
396 200
397 50
398 10
399 10
400 100
401 50
402 200
403 50
404 200
405 100
406 10
407 10
408 10
409 10
410 200
411 50
412 10
413 200
414 10
415 200
416 100
417 50
418 10
419 10
420 10
421 10
422 200
423 100
424 50
425 10
426 10
DEPOT_SECTION
1
-1
EOF