Normalized Data/p03_2_normalized_splitx10_0.sol
425 -4 1 2 3 221 219 220 371 376 374 375 373 372 269 -8 7 9 6 5 248 249 247 246 155 158 73 76 72 74 75 -13 11 12 14 10 52 55 53 54 51 242 243 245 241 244 -18 19 339 341 342 340 338 324 382 380 -20 236 234 235 193 195 191 190 194 192 -21 23 25 24 22 16 17 15 120 121 122 349 352 351 350 326 -35 34 32 36 33 277 276 303 304 -47 287 288 117 118 116 115 119 145 146 144 78 -48 49 50 182 180 178 179 181 31 30 29 28 391 390 27 26 185 184 -56 57 60 59 58 101 102 104 105 103 106 -62 61 63 66 67 64 65 44 43 46 41 42 45 159 157 156 154 -77 79 142 143 368 369 370 367 298 297 -84 83 85 250 252 251 239 240 238 237 386 384 385 388 389 387 383 -86 87 275 274 90 89 94 88 91 128 126 -100 98 99 164 162 163 213 211 210 212 271 273 270 272 296 294 295 -107 108 291 292 293 289 290 425 424 422 -109 81 80 82 317 316 320 321 318 322 319 -110 111 423 421 197 198 196 -125 124 123 114 113 112 260 262 259 261 263 -127 129 92 93 160 161 132 133 134 131 130 310 309 305 307 306 308 -139 140 136 137 138 141 135 183 173 172 175 -152 153 151 365 364 366 40 37 38 39 399 400 -166 167 165 402 278 280 282 281 279 401 -170 169 168 216 186 188 189 187 394 396 397 395 398 -171 222 224 226 225 217 218 214 215 346 343 344 345 348 347 -174 177 176 209 206 207 208 69 68 70 71 149 147 148 150 301 302 300 299 -201 199 204 200 205 202 203 363 357 358 359 361 360 362 -227 228 223 413 412 323 377 379 381 378 -264 265 267 266 331 332 334 333 335 414 418 420 416 415 417 419 -268 392 393 97 96 95 407 408 404 405 403 406 -284 285 283 286 409 410 411 311 312 314 -325 329 327 328 330 313 315 229 231 233 230 232 255 257 256 258 254 253 354 355 353 356 -336 337 0 





OBJ=
3041.248
BEST_KNOWN=
0.000